HUN,8,6,294
0,25,3,29,2,29,5,21,1,26,4,22
0,26,5,24,2,30,3,23,1,22,4,28
0,25,4,23,2,27,3,28,1,26,5,29
3,28,2,30,5,30,4,25,0,25,1,30
4,24,1,24,5,27,2,29,3,26,0,26
1,29,3,21,0,25,5,26,4,25,2,23
3,30,5,29,2,24,4,21,1,30,0,24
3,29,1,23,4,22,5,29,2,28,0,22
